echo            both
log             ../DEM/log.liggghts
thermo_log      ../DEM/post/thermo.txt

atom_style      granular 
atom_modify     map array
communicate     single vel yes

boundary        f f p
newton          off

units           si

region		    reg block -0.05 0.05 -0.05 0.05 0.0 1.26 units box
create_box	    1 reg

neighbor        0.00744 bin
neigh_modify    delay 0


# Material properties required for granular pair styles

fix         m1 all property/global youngsModulus peratomtype 5.e7
fix         m2 all property/global poissonsRatio peratomtype 0.40
fix         m3 all property/global coefficientRestitution peratomtypepair 1 0.8
fix         m4 all property/global coefficientFriction peratomtypepair 1 0.5

# pair style
pair_style  gran model hertz tangential history # Hertzian without cohesion
pair_coeff  * *

# timestep, gravity
timestep    0.000003
fix         gravi all gravity 9.81 vector 0.0 -1.0 0.0

# walls
#fix         cad all mesh/surface file wall.stl type 1 
#fix         granwalls all wall/gran/hertz/history mesh n_meshes 1 meshes cad

fix cylwalls all wall/gran model hertz tangential history primitive type 1 zcylinder 0.05 0. 0. 

# particle distributions and insertion
fix     pts1 all particletemplate/sphere 32452867 atom_type 1 density constant 2650 radius constant 0.0024
fix     pdd1 all particledistribution/discrete 15485867 1 pts1 1.0

#region and insertion
region      bc cylinder z 0.0 0.0 0.05 0.0 1.26 units box

#particle insertion 
#fix     ins all insert/pack seed 15485863 distributiontemplate pdd1 vel constant 0. 0. 1. insert_every once overlapcheck yes all_in yes particles_in_region 1000 region bc
#fix      ins all insert/pack seed 15485863 distributiontemplate pdd1 insert_every once overlapcheck yes volumefraction_region 0.05 region bc ntry_mc 10000
fix     ins all insert/pack seed 32452843 distributiontemplate pdd1 vel constant 0. 0. 0. insert_every once overlapcheck yes all_in yes particles_in_region 25566 region bc

# apply nve integration to all particles that are inserted as single particles
fix     integr all nve/sphere

# screen output
compute         1 all erotate/sphere
thermo_style    custom step atoms ke c_1 vol
thermo          1000
thermo_modify   lost ignore norm no

# insert the first particles so that dump is not empty
run     1
dump    dmp all custom 5000 post/dump.liggghts_init id type type x y z ix iy iz vx vy vz fx fy fz omegax omegay omegaz radius 

run     15000 upto
write_restart post/restart/liggghts.restart


