echo            both
log             ../DEM/log.liggghts
thermo_log      ../DEM/post/thermo.txt

atom_style	    granular
atom_modify	    map array
communicate	    single vel yes

boundary	    f f p
newton		    off

units		    si
processors	    1 1 48

#read the restart file
read_restart 	../DEM/post/restart/liggghts.restart

neighbor        0.00744 bin
neigh_modify    delay 0

# Material properties required for granular pair styles

fix         m1 all property/global youngsModulus peratomtype 5.e7
fix         m2 all property/global poissonsRatio peratomtype 0.40
fix         m3 all property/global coefficientRestitution peratomtypepair 1 0.8
fix         m4 all property/global coefficientFriction peratomtypepair 1 0.5

#pair style
pair_style gran model hertz tangential history #Hertzian without cohesion
pair_coeff	* *

#timestep, gravity
timestep    0.000003
fix         gravi all gravity 9.81 vector 0.0 -1.0 0.0

#walls
#fix         cad all mesh/surface file wall.stl type 1 
#fix         granwalls all wall/gran/hertz/history mesh n_meshes 1 meshes cad
fix cylwalls all wall/gran model hertz tangential history primitive type 1 zcylinder 0.05 0. 0. 

#cfd coupling
fix		cfd all couple/cfd couple_every 100 mpi
fix		cfd2 all couple/cfd/force/implicit

#apply nve integration to all particles that are inserted as single particles
fix		integr all nve/sphere

#screen output
compute		1 all erotate/sphere
thermo_style	custom step atoms ke c_1 vol 
thermo		10
thermo_modify	lost ignore norm no

#dump		dmp all custom 5000 ../DEM/post/dump*.liggghts_restart id type type x y z vx vy vz fx fy fz radius 
dump		dmp all custom/vtk 5000 ../DEM/post/pipe_*.vtk id type type x y z ix iy iz vx vy vz fx fy fz omegax omegay omegaz radius

run		    0
